
******************************************************************************
This program contains Ipopt, a library for large-scale nonlinear optimization.
 Ipopt is released as open source code under the Eclipse Public License (EPL).
         For more information visit http://projects.coin-or.org/Ipopt

This version of Ipopt was compiled from source code available at
    https://github.com/IDAES/Ipopt as part of the Institute for the Design of
    Advanced Energy Systems Process Systems Engineering Framework (IDAES PSE
    Framework) Copyright (c) 2018-2019. See https://github.com/IDAES/idaes-pse.

This version of Ipopt was compiled using HSL, a collection of Fortran codes
    for large-scale scientific computation.  All technical papers, sales and
    publicity material resulting from use of the HSL codes within IPOPT must
    contain the following acknowledgement:
        HSL, a collection of Fortran codes for large-scale scientific
        computation. See http://www.hsl.rl.ac.uk.
******************************************************************************

This is Ipopt version 3.13.2, running with linear solver ma27.

Number of nonzeros in equality constraint Jacobian...:     1588
Number of nonzeros in inequality constraint Jacobian.:        0
Number of nonzeros in Lagrangian Hessian.............:     2432

Total number of variables............................:      576
                     variables with only lower bounds:      128
                variables with lower and upper bounds:      384
                     variables with only upper bounds:        0
Total number of equality constraints.................:      570
Total number of inequality constraints...............:        0
        inequality constraints with only lower bounds:        0
   inequality constraints with lower and upper bounds:        0
        inequality constraints with only upper bounds:        0

iter    objective    inf_pr   inf_du lg(mu)  ||d||  lg(rg) alpha_du alpha_pr  ls
   0  0.0000000e+00 1.65e+00 1.78e-15  -1.0 0.00e+00    -  0.00e+00 0.00e+00   0
   1  6.8256057e+01 1.57e+00 1.19e+05  -1.0 1.57e+06    -  7.02e-02 4.10e-02h  2
   2  7.6917761e+01 1.57e+00 1.50e+05  -1.0 3.58e+06  -4.0 4.18e-02 1.67e-03h  6
   3  7.9668728e+01 1.57e+00 1.50e+05  -1.0 3.78e+06  -4.5 4.21e-02 4.96e-04h  7
   4  8.2023411e+01 1.57e+00 1.50e+05  -1.0 3.91e+06  -5.0 3.93e-02 4.29e-04h  7
   5  8.6051226e+01 1.56e+00 1.52e+05  -1.0 3.87e+06  -4.5 4.13e-02 6.79e-04h  7
   6  9.0263187e+01 1.56e+00 1.52e+05  -1.0 3.96e+06  -5.0 4.59e-02 7.31e-04h  8
   7  9.5032568e+01 1.56e+00 1.54e+05  -1.0 4.00e+06  -4.6 6.46e-02 7.34e-04h  8
   8  9.7156611e+01 1.56e+00 1.54e+05  -1.0 4.32e+06  -5.1 2.54e-02 3.84e-04h  8
   9  1.0076612e+02 1.56e+00 1.54e+05  -1.0 4.14e+06  -4.6 6.35e-02 5.19e-04h  8
iter    objective    inf_pr   inf_du lg(mu)  ||d||  lg(rg) alpha_du alpha_pr  ls
  10  1.0234639e+02 1.56e+00 1.54e+05  -1.0 6.28e+06  -5.1 1.71e-02 2.92e-04h  8
  11  1.7485798e+02 1.53e+00 4.22e+05  -1.0 4.37e+06  -4.7 2.42e-02 8.21e-03w  1
  12  1.8161310e+02 1.53e+00 4.21e+05  -1.0 5.65e+06  -4.3 6.35e-02 5.21e-04w  1
  13  1.9855379e+03 2.64e+01 5.71e+07  -1.0 5.70e+06  -4.7 1.86e-02 5.29e-02w  1
  14  1.0420571e+02 1.56e+00 1.54e+05  -1.0 1.29e+07  -5.2 2.42e-02 2.57e-04h  5
  15  1.0789489e+02 1.56e+00 1.54e+05  -1.0 4.35e+06  -4.8 7.00e-02 5.03e-04h  6
  16  1.1442233e+02 1.56e+00 1.58e+05  -1.0 4.29e+06  -4.4 1.22e-01 8.21e-04h  7
  17  1.1903302e+02 1.56e+00 1.58e+05  -1.0 4.47e+06  -4.8 9.11e-02 5.80e-04h  9
  18  1.2382781e+02 1.55e+00 1.60e+05  -1.0 4.49e+06  -4.4 1.03e-01 5.52e-04h  9
  19  1.2755412e+02 1.55e+00 1.60e+05  -1.0 4.63e+06  -4.9 7.38e-02 4.45e-04h  9
iter    objective    inf_pr   inf_du lg(mu)  ||d||  lg(rg) alpha_du alpha_pr  ls
  20  1.3333784e+02 1.55e+00 1.62e+05  -1.0 4.64e+06  -4.5 9.55e-02 6.22e-04h 10
  21  1.3589501e+02 1.55e+00 1.62e+05  -1.0 5.00e+06  -4.9 4.55e-02 2.97e-04h  9
  22  1.3724641e+02 1.55e+00 7.68e+05  -1.0 4.79e+06  -4.5 2.49e-04 7.76e-05H  1
  23  1.3914016e+02 1.55e+00 7.66e+05  -1.0 3.64e+07  -5.0 2.63e-03 2.87e-04h  5
  24  1.5922785e+02 1.55e+00 7.63e+05  -1.0 4.41e+06  -4.6 1.43e-01 1.81e-03H  1
  25  1.8333019e+02 1.54e+00 7.22e+05  -1.0 4.75e+06  -4.1 2.67e-02 2.16e-03h  8
  26  2.2929732e+02 1.54e+00 5.97e+05  -1.0 5.10e+06  -4.6 1.21e-02 3.51e-03h  6
  27  2.5916645e+02 1.54e+00 5.62e+05  -1.0 5.89e+06  -4.2 1.53e-02 1.93e-03h  8
  28  3.1315894e+02 1.53e+00 5.65e+05  -1.0 6.08e+06  -4.7 2.26e-04 3.04e-03h  6
  29  4.0523864e+02 1.52e+00 6.21e+05  -1.0 6.79e+06  -4.2 1.83e-05 4.21e-03h  4
iter    objective    inf_pr   inf_du lg(mu)  ||d||  lg(rg) alpha_du alpha_pr  ls
  30  5.1320840e+02 1.52e+00 8.20e+05  -1.0 7.31e+06  -4.7 1.89e-02 3.92e-03h  5
  31  5.3614494e+02 1.51e+00 8.67e+05  -1.0 2.31e+07  -5.2 3.81e-02 6.76e-04h  4
  32  5.4484479e+02 1.50e+00 9.62e+05  -1.0 3.06e+08  -5.7 1.02e-03 5.61e-05h  4
  33  5.6946869e+02 1.50e+00 9.95e+05  -1.0 1.19e+07  -5.2 3.40e-02 6.77e-04h  5
  34  5.7581560e+02 1.50e+00 1.00e+06  -1.0 2.64e+07  -5.7 1.30e-02 1.34e-04h  6
  35  8.0822957e+02 3.75e+00 5.71e+06  -1.0 7.12e+07  -6.2 6.57e-03 1.54e-03w  1
  36  2.3451280e+03 4.53e+00 3.47e+07  -1.0 7.42e+06  -4.0 1.30e-01 2.85e-02w  1
  37  2.3461226e+03 4.60e+00 3.47e+07  -1.0 7.98e+06  -3.5 4.75e-03 2.52e-05w  1
  38  5.7795556e+02 1.50e+00 1.00e+06  -1.0 9.75e+06  -4.0 6.57e-03 2.40e-05h  6
  39  8.4470086e+02 1.49e+00 1.74e+06  -1.0 7.90e+06  -4.5 1.16e-01 6.88e-03h  5
iter    objective    inf_pr   inf_du lg(mu)  ||d||  lg(rg) alpha_du alpha_pr  ls
  40  9.3125926e+02 1.47e+00 1.83e+06  -1.0 9.44e+06  -5.0 5.58e-02 1.72e-03h  4
  41  9.4976969e+02 1.47e+00 1.84e+06  -1.0 1.92e+07  -5.4 3.45e-02 2.96e-04h  5
  42  9.8589385e+02 1.47e+00 1.85e+06  -1.0 8.12e+06  -5.0 1.73e-01 6.62e-04h  5
  43  1.0080088e+03 1.47e+00 1.87e+06  -1.0 1.46e+07  -5.5 2.61e-02 3.43e-04h  5
  44  1.0295046e+03 1.46e+00 1.88e+06  -1.0 1.84e+07  -6.0 5.29e-02 2.81e-04h  5
  45  1.3120268e+03 1.45e+00 2.16e+06  -1.0 1.10e+07    -  1.43e-01 5.15e-03h  5
  46  1.9097817e+03 1.44e+00 2.82e+06  -1.0 1.28e+07    -  1.23e-01 7.61e-03h  5
  47  1.8266512e+04 1.35e+00 5.39e+07  -1.0 1.54e+07    -  6.09e-02 5.93e-02H  1
  48  1.8274204e+04 1.35e+00 5.39e+07  -1.0 2.69e+07  -4.6 5.60e-03 4.80e-05h  1
  49r 1.8274204e+04 1.35e+00 1.00e+03   0.1 0.00e+00  -4.2 0.00e+00 4.51e-07R  3
iter    objective    inf_pr   inf_du lg(mu)  ||d||  lg(rg) alpha_du alpha_pr  ls
  50r 1.8274221e+04 8.82e-01 9.98e+02   0.1 9.49e+02    -  5.46e-03 6.37e-03f  1
  51  1.8784522e+04 8.81e-01 2.64e+02  -1.0 1.98e+07    -  1.72e-02 1.21e-03h  6
  52  1.9292023e+04 8.79e-01 4.99e+02  -1.0 2.14e+07    -  5.57e-02 1.11e-03h  6
  53  2.0176053e+04 8.77e-01 1.07e+03  -1.0 2.48e+07    -  2.73e-02 1.67e-03h  6
  54  2.1441183e+04 8.75e-01 2.28e+03  -1.0 2.91e+07    -  8.40e-02 2.04e-03h  6
  55  2.2850752e+04 8.73e-01 3.99e+03  -1.0 3.45e+07    -  1.66e-02 1.92e-03h  6
  56  2.5978507e+04 8.70e-01 1.30e+04  -1.0 3.91e+07    -  8.36e-02 3.67e-03h  5
  57  3.2701428e+04 8.64e-01 5.89e+04  -1.0 4.66e+07    -  1.66e-02 6.31e-03h  4
  58  4.1672410e+04 8.57e-01 1.89e+05  -1.0 4.80e+07    -  2.72e-02 7.71e-03h  3
  59  4.2159141e+04 8.56e-01 2.03e+05  -1.0 1.38e+07    -  2.15e-02 2.18e-03h  4
iter    objective    inf_pr   inf_du lg(mu)  ||d||  lg(rg) alpha_du alpha_pr  ls
  60  4.1924935e+04 8.55e-01 2.12e+05  -1.0 1.99e+07    -  2.88e-02 1.15e-03f  5
  61  3.2940456e+04 8.13e+00 1.87e+06  -1.0 4.13e+07    -  6.09e-02 1.88e-02w  1
  62  2.7574892e+05 4.85e+00 3.95e+08  -1.0 1.83e+08    -  6.04e-04 3.99e-02w  1
  63  2.7544056e+05 1.62e+01 3.91e+08  -1.0 9.04e+06  -4.7 3.68e-04 1.24e-02w  1
  64  4.1223151e+04 8.53e-01 2.25e+05  -1.0 7.03e+08  -3.4 6.09e-02 1.18e-03f  4
  65  4.0421089e+04 8.53e-01 2.31e+05  -1.0 8.94e+07    -  4.95e-02 5.25e-04f  6
  66  3.9417204e+04 8.52e-01 2.37e+05  -1.0 1.19e+08    -  4.24e-02 4.78e-04f  6
  67  3.8820468e+04 8.52e-01 2.39e+05  -1.0 1.18e+08    -  3.89e-02 2.90e-04f  7
  68  2.0347965e+04 2.13e+01 9.05e+06  -1.0 1.82e+08    -  1.84e-02 1.09e-02f  1
  69  2.2660188e+04 2.04e+01 1.49e+08  -1.0 3.39e+06  -3.8 1.35e-02 3.93e-02h  1
iter    objective    inf_pr   inf_du lg(mu)  ||d||  lg(rg) alpha_du alpha_pr  ls
  70  2.2903314e+04 2.02e+01 1.56e+08  -1.0 3.35e+06  -3.4 7.31e-05 5.92e-03h  1
  71  2.3003402e+04 2.02e+01 1.56e+08  -1.0 3.47e+06  -3.9 2.33e-01 1.93e-03h  1
  72  2.3145458e+04 2.01e+01 1.56e+08  -1.0 7.54e+06  -4.4 2.38e-01 5.97e-03h  1
  73  2.4717740e+04 1.95e+01 2.25e+08  -1.0 3.47e+06  -3.9 2.60e-01 2.67e-02h  1
  74  2.4729653e+04 1.95e+01 2.24e+08  -1.0 4.93e+06  -4.4 1.40e-01 3.88e-04h  1
  75  2.4817742e+04 1.95e+01 2.24e+08  -1.0 5.75e+06  -4.0 1.58e-01 6.02e-04h  1
  76  2.5748176e+04 1.91e+01 2.13e+08  -1.0 8.65e+06  -4.5 5.55e-02 1.25e-02h  1
  77  2.6153844e+04 1.90e+01 2.13e+08  -1.0 1.71e+07  -4.1 1.07e-02 2.34e-03h  1
  78  2.7086540e+04 1.88e+01 3.00e+08  -1.0 1.63e+07  -4.5 2.09e-02 1.17e-02h  1
  79  2.7154346e+04 1.88e+01 3.01e+08  -1.0 4.99e+07  -4.1 2.82e-03 3.79e-04h  1
iter    objective    inf_pr   inf_du lg(mu)  ||d||  lg(rg) alpha_du alpha_pr  ls
  80  2.7177552e+04 1.86e+01 7.91e+08  -1.0 4.35e+07  -4.6 1.24e-02 9.45e-03h  1
  81  2.6534854e+04 1.86e+01 2.37e+10  -1.0 5.48e+07  -5.1 8.06e-03 1.49e-03f  1
  82  2.6570625e+04 1.86e+01 2.37e+10  -1.0 1.66e+07  -2.8 2.72e-04 2.53e-04h  1
  83  2.6570719e+04 1.86e+01 2.37e+10  -1.0 6.03e+06  -0.6 2.87e-05 6.30e-06h  2
  84r 2.6570719e+04 1.86e+01 1.00e+03   1.3 0.00e+00  -1.1 0.00e+00 1.35e-07R  2
  85r 2.6570693e+04 2.08e+01 1.19e+03   1.3 1.31e+04    -  1.26e-03 2.85e-03f  1
  86r 2.6570688e+04 2.08e+01 1.55e+03   1.3 1.02e+04    -  1.15e-01 1.88e-03f  1
  87r 2.6570688e+04 2.07e+01 1.39e+03   1.3 4.47e+02    -  2.86e-01 5.85e-03f  1
  88r 2.6570724e+04 1.73e+01 2.63e+03   1.3 1.65e+02    -  6.71e-02 1.61e-01f  1
  89r 2.6570724e+04 1.72e+01 2.62e+03   1.3 9.04e+00   4.0 1.36e-02 1.09e-02f  1
iter    objective    inf_pr   inf_du lg(mu)  ||d||  lg(rg) alpha_du alpha_pr  ls
  90r 2.6570724e+04 1.63e+01 2.77e+03   1.3 6.86e+00   3.5 5.82e-03 8.27e-02f  1
  91  2.6573676e+04 1.63e+01 1.61e+02  -1.0 5.92e+06    -  1.95e-04 2.18e-04h  1
  92  2.6573228e+04 1.63e+01 1.61e+02  -1.0 1.86e+07    -  1.04e-06 1.09e-06h  2
  93  2.6573245e+04 1.63e+01 1.61e+02  -1.0 6.22e+06    -  1.44e-06 5.51e-07h  2
  94r 2.6573245e+04 1.63e+01 9.99e+02   1.2 0.00e+00    -  0.00e+00 2.78e-07R  2
  95r 2.6573245e+04 1.54e+01 9.98e+02   1.2 1.07e+04    -  4.59e-04 1.50e-03f  1
  96r 2.6573246e+04 1.54e+01 9.96e+02   1.2 1.67e+03    -  6.35e-03 1.51e-03f  1
  97r 2.6573248e+04 1.54e+01 9.89e+02   1.2 5.63e+02    -  3.37e-03 7.33e-03f  1
  98r 2.6573256e+04 1.54e+01 9.66e+02   1.2 8.57e+01    -  2.11e-01 2.26e-02f  1
  99r 2.6573256e+04 1.54e+01 1.41e+03   1.2 1.41e-01   4.0 9.90e-01 1.00e+00f  1
iter    objective    inf_pr   inf_du lg(mu)  ||d||  lg(rg) alpha_du alpha_pr  ls
 100r 2.6573256e+04 1.54e+01 1.26e+03   1.2 4.73e-02   4.4 9.90e-01 1.00e+00f  1
 101r 2.6573560e+04 1.53e+01 1.25e+03   1.2 4.69e+02    -  4.77e-02 4.78e-02f  1
 102r 2.6573560e+04 1.52e+01 1.06e+03   1.2 3.82e-01   3.9 1.87e-01 2.45e-01f  1
 103r 2.6573560e+04 1.52e+01 4.79e+03   1.2 2.78e-01   4.4 5.70e-01 7.12e-01h  1
 104r 2.6573560e+04 1.52e+01 4.32e+03   1.2 6.83e-02   4.8 9.91e-01 1.00e+00h  1
 105r 2.6573560e+04 1.52e+01 3.29e+03   1.2 1.75e-01   4.3 3.20e-01 2.41e-01h  1
 106r 2.6573560e+04 1.52e+01 8.11e+03   1.2 1.51e-01   3.8 4.85e-01 6.85e-01f  1
 107r 2.6573560e+04 1.52e+01 5.82e+03   1.2 9.83e-02   4.3 1.00e+00 4.75e-01f  1
 108r 2.6573560e+04 1.52e+01 2.24e+04   1.2 4.35e-02   6.5 1.00e+00 1.23e-01f  2
 109r 2.6573560e+04 1.52e+01 2.39e+04   1.2 6.05e-02   6.0 1.54e-01 4.19e-01h  1
iter    objective    inf_pr   inf_du lg(mu)  ||d||  lg(rg) alpha_du alpha_pr  ls
 110r 2.6573560e+04 1.52e+01 1.36e+04   1.2 3.84e-02   5.6 8.95e-01 1.00e+00f  1
 111r 2.6573560e+04 1.52e+01 9.93e+02   1.2 8.39e-03   5.1 1.00e+00 1.00e+00f  1
 112r 2.6573560e+04 1.52e+01 9.21e+02   1.2 2.33e-02   4.6 1.00e+00 1.00e+00f  1
 113r 2.6573560e+04 1.52e+01 7.56e+02   1.2 5.75e-02   4.1 1.00e+00 1.00e+00f  1
 114r 2.6573560e+04 1.51e+01 2.75e+03   0.5 2.27e-01   3.6 4.63e-01 3.13e-01f  1
 115r 2.6573560e+04 1.51e+01 1.07e+03   0.5 7.32e-01   4.1 8.78e-02 3.12e-02f  1
 116r 2.6573560e+04 1.51e+01 1.15e+03   0.5 1.08e+00   3.6 1.80e-01 3.91e-03f  1
 117r 2.6573560e+04 1.51e+01 4.38e+03   0.5 8.76e-01   3.1 1.72e-03 3.13e-01f  1
 118r 2.6573560e+04 1.51e+01 2.49e+03   0.5 2.74e-01   3.5 9.38e-01 4.50e-01f  1
 119r 2.6573560e+04 1.50e+01 2.08e+03   0.5 6.00e-01   3.1 7.08e-01 1.64e-01f  1
iter    objective    inf_pr   inf_du lg(mu)  ||d||  lg(rg) alpha_du alpha_pr  ls
 120r 2.6573560e+04 1.50e+01 5.66e+02   0.5 1.53e-01   3.5 1.00e+00 7.94e-01f  1
 121r 2.6573560e+04 1.50e+01 4.40e+02   0.5 6.51e-01   3.0 1.00e+00 2.19e-01f  1
 122r 2.6573560e+04 1.49e+01 3.15e+03   0.5 6.70e-02   3.4 1.00e+00 1.00e+00f  1
 123r 2.6573560e+04 1.49e+01 2.82e+03   0.5 1.03e+00   3.0 1.41e-01 1.24e-01f  1
 124r 2.6573560e+04 1.48e+01 4.18e+03   0.5 2.36e+00   2.5 8.36e-02 1.51e-01f  1
 125r 2.6573560e+04 1.48e+01 3.73e+03   0.5 1.83e-01   3.8 3.59e-01 1.30e-01f  1
 126r 2.6573560e+04 1.48e+01 2.80e+03   0.5 1.36e-01   4.2 1.87e-01 2.06e-01f  1
 127r 2.6573560e+04 1.48e+01 1.34e+03   0.5 2.06e-01   3.8 4.61e-01 4.90e-01f  1
 128r 2.6573560e+04 1.48e+01 9.92e+02   0.5 4.78e-01   3.3 1.00e+00 2.82e-01f  1
 129r 2.6573560e+04 1.47e+01 6.45e+02   0.5 6.91e-01   2.8 2.16e-01 4.09e-01f  1
iter    objective    inf_pr   inf_du lg(mu)  ||d||  lg(rg) alpha_du alpha_pr  ls
 130r 2.6573560e+04 1.47e+01 8.84e+02   0.5 6.99e-02   4.1 1.00e+00 8.27e-01f  1
 131  2.6573577e+04 2.11e+02 1.31e+12  -1.0 1.46e+07    -  1.20e-07 9.18e-08f  3
MA27BD returned iflag=-4 and requires more memory.
 Increase liw from 28315 to 56630 and la from 31560 to 67300 and factorize again.
WARNING: Problem in step computation; switching to emergency mode.
 132r 2.6573577e+04 2.11e+02 9.99e+02   2.3 0.00e+00  18.6 0.00e+00 0.00e+00R  1
 133r 2.6573577e+04 1.47e+01 1.03e+03   2.3 2.11e+05    -  1.70e-02 9.90e-04f  1
 134  2.6573667e+04 1.29e+01 1.81e+02  -1.0 3.07e+07    -  7.40e-07 2.66e-07h  1
 135  2.6573636e+04 1.74e+00 4.44e+02  -1.0 3.97e+12    -  3.88e-10 8.51e-13h  3
 136  2.6573511e+04 1.74e+00 3.96e+02  -1.0 6.64e+11    -  5.98e-12 3.98e-13H  1
 137  2.6573510e+04 1.74e+00 3.96e+02  -1.0 1.07e+13    -  7.56e-11 2.59e-14f 12
 138r 2.6573510e+04 1.74e+00 9.99e+02   0.2 0.00e+00    -  0.00e+00 3.36e-11R  2
 139r 2.6573514e+04 1.74e+00 9.97e+02   0.2 1.96e+02    -  6.03e-02 3.13e-03f  1
iter    objective    inf_pr   inf_du lg(mu)  ||d||  lg(rg) alpha_du alpha_pr  ls
 140r 2.6573589e+04 3.18e+02 1.99e+12   0.2 2.88e+02    -  4.95e-02 5.30e-02f  1
 141r 2.6573589e+04 2.19e+01 3.16e+16   0.2 1.24e+00  18.0 3.58e-03 1.44e-03h  1
 142r 2.6573589e+04 1.40e+01 8.86e+14   0.2 7.97e-03  17.0 9.90e-01 2.78e-04h  3
 143r 2.6573589e+04 1.73e+00 8.83e+14   0.2 2.52e-01  16.6 1.58e-04 3.60e-03H  1
 144r 2.6573589e+04 1.73e+00 8.83e+14   0.2 2.36e-01  16.1 9.03e-03 9.06e-06h  3
 145r 2.6573589e+04 1.73e+00 8.83e+14   0.2 2.35e-01  15.6 0.00e+00 4.29e-07R  7
 146r 2.6573589e+04 1.73e+00 4.88e+04   0.2 9.90e-14  16.0 9.90e-01 1.00e+00f  1
 147r 2.6573589e+04 1.73e+00 1.13e+03   0.2 3.10e-13  15.6 9.90e-01 1.00e+00h  1
 148r 2.6573589e+04 1.73e+00 1.08e+03   0.2 8.88e-13  15.1 1.00e+00 1.00e+00h  1
 149r 2.6573589e+04 1.73e+00 1.09e+03   0.2 2.68e-12  14.6 1.00e+00 1.00e+00h  1
iter    objective    inf_pr   inf_du lg(mu)  ||d||  lg(rg) alpha_du alpha_pr  ls
 150r 2.6573589e+04 1.73e+00 1.09e+03   0.2 8.02e-12  14.1 1.00e+00 1.00e+00h  1
 151r 2.6573589e+04 1.73e+00 1.09e+03   0.2 2.41e-11  13.7 1.00e+00 1.00e+00h  1
 152r 2.6573589e+04 1.73e+00 1.09e+03   0.2 7.22e-11  13.2 1.00e+00 1.00e+00f  1
 153r 2.6573589e+04 1.73e+00 1.09e+03   0.2 2.17e-10  12.7 1.00e+00 1.00e+00f  1
 154r 2.6573589e+04 1.73e+00 1.09e+03   0.2 2.73e-04  12.2 0.00e+00 4.77e-07R 22
 155r 2.6573589e+04 1.73e+00 1.09e+03   0.2 1.95e-09  11.7 1.00e+00 6.10e-05f 15
 156r 2.6573589e+04 1.73e+00 1.09e+03   0.2 5.85e-09  11.3 1.00e+00 9.54e-07h 21
 157r 2.6573589e+04 1.73e+00 1.09e+03   0.2 1.75e-08  10.8 1.00e+00 4.77e-07h 22
 158r 2.6573589e+04 1.73e+00 1.09e+03   0.2 5.26e-08  10.3 1.00e+00 5.96e-08h 25
 159r 2.6573589e+04 1.73e+00 1.09e+03   0.2 1.58e-07   9.8 1.00e+00 1.86e-09h 30
iter    objective    inf_pr   inf_du lg(mu)  ||d||  lg(rg) alpha_du alpha_pr  ls
 160r 2.6573589e+04 1.57e+01 1.34e+05   0.2 4.74e-07   9.4 1.00e+00 1.00e+00f  1
 161r 2.6573589e+04 1.73e+00 1.68e+03   0.2 1.10e-01   8.9 1.00e+00 1.66e-04h 11
 162r 2.6573589e+04 3.17e+02 1.04e+07   0.2 6.51e-04   8.4 1.00e+00 1.00e+00f  1
WARNING: Problem in step computation; switching to emergency mode.
 163r 2.6573589e+04 3.17e+02 1.04e+07   0.2 6.51e-04  20.0 0.00e+00 0.00e+00R  1
WARNING: Problem in step computation; switching to emergency mode.
Restoration phase is called at point that is almost feasible,
  with constraint violation 0.000000e+00. Abort.
Restoration phase in the restoration phase failed.

Number of Iterations....: 163

                                   (scaled)                 (unscaled)
Objective...............:   2.6573589296021415e+04    2.6573589296021415e+04
Dual infeasibility......:   1.0359107702862078e+07    1.0359107702862078e+07
Constraint violation....:   3.1742500156742528e+02    3.1742500156742528e+02
Complementarity.........:   1.7373104923485145e+00    1.7373104923485145e+00
Overall NLP error.......:   1.9472757291103345e+06    1.0359107702862078e+07


Number of objective function evaluations             = 732
Number of objective gradient evaluations             = 99
Number of equality constraint evaluations            = 734
Number of inequality constraint evaluations          = 0
Number of equality constraint Jacobian evaluations   = 170
Number of inequality constraint Jacobian evaluations = 0
Number of Lagrangian Hessian evaluations             = 164
Total CPU secs in IPOPT (w/o function evaluations)   =      0.644
Total CPU secs in NLP function evaluations           =      7.494

EXIT: Restoration Failed!
